p cnf 18 25
-1 13 14 15 0 
-2 16 0 
-3 16 0 
-4 -5 -6 16 0 
-7 -8 16 0 
-9 16 0 
-5 15 0 
-10 15 0 
-4 -11 17 0 
-9 15 0 
-9 17 0 
-12 -11 15 0 
-13 1 14 18 0 
-13 1 14 15 0 
-13 1 14 17 0 
-13 1 14 16 0 
-6 16 0 
-1 13 14 16 0 
-5 16 0 
-12 15 0 
-4 15 0 
-4 16 0 
-6 -13 1 14 16 0 
-14 1 13 15 0 
-7 -13 1 14 15 0 
